1000
[150,151,152,153,154,155,156,157,158,159,160,161,162,163,164,165,166,167,168,169,170,171,172,173,174,176,178,180,182,183,185,186,187,188,189,190,191,192,193,194,195,196,197,199,200]
[2,2,2,4,3,1,1,2,2,2,3,2,1,4,2,1,3,2,4,2,2,3,1,5,2,1,1,2,1,2,3,2,3,4,1,1,3,3,4,2,2,2,1,2,2]
